c uprop, v00.0, 
c reading from data/prog894.c.cnf
c done reading: 0.004105
p cnf 129 585
-36 -60 0
-36 -56 0
36 56 60 0
-29 56 60 0
-29 -56 -60 0
29 56 -60 0
29 -56 60 0
36 -50 0
-48 -50 0
-36 48 50 0
-36 -43 48 0
36 -43 -48 0
36 43 48 0
-36 43 -48 0
-38 50 0
-34 -38 0
34 38 -50 0
-32 34 -50 0
-32 -34 50 0
32 34 50 0
32 -34 -50 0
-30 38 0
-27 -30 0
27 30 -38 0
27 -38 -57 0
-27 38 -57 0
27 38 57 0
-27 -38 57 0
30 -62 0
-53 -62 0
-30 53 62 0
-30 53 -63 0
30 -53 -63 0
30 53 63 0
-30 -53 63 0
62 -65 0
-45 -65 0
45 -62 65 0
45 -62 -66 0
-45 62 -66 0
45 62 66 0
-45 -62 66 0
65 -68 0
-41 -68 0
41 -65 68 0
41 -65 -69 0
-41 65 -69 0
41 65 69 0
-41 -65 69 0
56 -71 0
60 -71 0
-56 -60 71 0
-56 -60 -72 0
56 60 -72 0
-56 60 72 0
56 -60 72 0
-48 -56 74 0
-48 -71 74 0
-56 -71 74 0
48 56 -74 0
48 71 -74 0
56 71 -74 0
48 -74 -75 0
56 -74 -75 0
71 -74 -75 0
-48 74 75 0
-56 74 75 0
-71 74 75 0
-48 -56 -71 75 0
48 56 71 -75 0
-34 -48 77 0
-34 -74 77 0
-48 -74 77 0
34 48 -77 0
34 74 -77 0
48 74 -77 0
34 -77 -78 0
48 -77 -78 0
74 -77 -78 0
-34 77 78 0
-48 77 78 0
-74 77 78 0
-34 -48 -74 78 0
34 48 74 -78 0
-27 -34 80 0
-27 -77 80 0
-34 -77 80 0
27 34 -80 0
27 77 -80 0
34 77 -80 0
-24 27 -80 0
-24 34 -80 0
-24 77 -80 0
24 -27 80 0
24 -34 80 0
24 -77 80 0
24 -27 -34 -77 0
-24 27 34 77 0
23 -27 -53 0
23 -53 -80 0
23 -27 -80 0
-23 27 53 0
-23 53 80 0
-23 27 80 0
-22 -23 53 0
-22 -23 27 0
-22 -23 80 0
22 23 -53 0
22 23 -27 0
22 23 -80 0
22 -27 -53 -80 0
-22 27 53 80 0
21 -45 -53 0
21 -23 -45 0
21 -23 -53 0
-21 45 53 0
-21 23 45 0
-21 23 53 0
-20 -21 45 0
-20 -21 53 0
-20 -21 23 0
20 21 -45 0
20 21 -53 0
20 21 -23 0
20 -23 -45 -53 0
-20 23 45 53 0
19 -41 -45 0
19 -21 -41 0
19 -21 -45 0
-19 41 45 0
-19 21 41 0
-19 21 45 0
-19 41 -59 0
-19 45 -59 0
-19 21 -59 0
19 -41 59 0
19 -45 59 0
19 -21 59 0
-21 -41 -45 59 0
21 41 45 -59 0
41 -55 0
19 -55 0
-19 -41 55 0
-19 -41 -47 0
19 41 -47 0
19 -41 47 0
-19 41 47 0
-33 75 0
-33 60 0
33 -60 -75 0
-26 -60 -75 0
-26 60 75 0
26 60 -75 0
26 -60 75 0
52 -56 -78 0
-33 52 -78 0
-33 52 -56 0
-52 56 78 0
33 -52 78 0
33 -52 56 0
-44 -52 78 0
-44 -52 56 0
33 -44 -52 0
44 52 -78 0
44 52 -56 0
-33 44 52 0
-33 44 -56 -78 0
33 -44 56 78 0
-24 40 -48 0
-24 40 -52 0
40 -48 -52 0
24 -40 48 0
24 -40 52 0
-40 48 52 0
-18 24 -40 0
-18 -40 48 0
-18 -40 52 0
18 -24 40 0
18 40 -48 0
18 40 -52 0
18 -24 -48 -52 0
-18 24 48 52 0
17 -22 -34 0
17 -22 -40 0
17 -34 -40 0
-17 22 34 0
-17 22 40 0
-17 34 40 0
-16 -17 22 0
-16 -17 34 0
-16 -17 40 0
16 17 -22 0
16 17 -34 0
16 17 -40 0
16 -22 -34 -40 0
-16 22 34 40 0
15 -20 -27 0
15 -17 -20 0
15 -17 -27 0
-15 20 27 0
-15 17 20 0
-15 17 27 0
-14 -15 20 0
-14 -15 27 0
-14 -15 17 0
14 15 -20 0
14 15 -27 0
14 15 -17 0
14 -17 -20 -27 0
-14 17 20 27 0
13 -53 -59 0
13 -15 -59 0
13 -15 -53 0
-13 53 59 0
-13 15 59 0
-13 15 53 0
-12 -13 59 0
-12 -13 53 0
-12 -13 15 0
12 13 -59 0
12 13 -53 0
12 13 -15 0
12 -15 -53 -59 0
-12 15 53 59 0
11 -45 -47 0
11 -13 -47 0
11 -13 -45 0
-11 45 47 0
-11 13 47 0
-11 13 45 0
-10 -11 47 0
-10 -11 45 0
-10 -11 13 0
10 11 -47 0
10 11 -45 0
10 11 -13 0
10 -13 -45 -47 0
-10 13 45 47 0
9 -41 -55 0
9 -11 -55 0
9 -11 -41 0
-9 41 55 0
-9 11 55 0
-9 11 41 0
-8 -9 55 0
-8 -9 41 0
-8 -9 11 0
8 9 -55 0
8 9 -41 0
8 9 -11 0
8 -11 -41 -55 0
-8 11 41 55 0
-7 -60 0
-7 -72 0
7 60 72 0
-6 60 72 0
-6 -60 -72 0
6 -60 72 0
6 60 -72 0
-5 7 0
-5 -26 0
5 -7 26 0
-4 -7 26 0
-4 7 -26 0
4 7 26 0
4 -7 -26 0
-3 5 0
-3 -44 0
3 -5 44 0
-5 44 -81 0
5 -44 -81 0
5 44 81 0
-5 -44 81 0
3 -82 0
-18 -82 0
-3 18 82 0
-3 18 -83 0
3 -18 -83 0
3 18 83 0
-3 -18 83 0
82 -84 0
-16 -84 0
16 -82 84 0
16 -82 -85 0
-16 82 -85 0
16 82 85 0
-16 -82 85 0
84 -86 0
-14 -86 0
14 -84 86 0
14 -84 -87 0
-14 84 -87 0
14 84 87 0
-14 -84 87 0
86 -88 0
-12 -88 0
12 -86 88 0
12 -86 -89 0
-12 86 -89 0
12 86 89 0
-12 -86 89 0
88 -90 0
-10 -90 0
10 -88 90 0
10 -88 -91 0
-10 88 -91 0
10 88 91 0
-10 -88 91 0
90 -92 0
-8 -92 0
8 -90 92 0
8 -90 -93 0
-8 90 -93 0
8 90 93 0
-8 -90 93 0
92 -94 0
-9 -94 0
9 -92 94 0
9 -92 -95 0
-9 92 -95 0
9 92 95 0
-9 -92 95 0
-96 -98 0
96 98 0
-99 -101 0
99 101 0
-102 -104 0
102 104 0
-105 -107 0
105 107 0
-108 -110 0
108 110 0
-96 111 0
96 -111 0
-96 -99 112 0
96 99 -112 0
99 -112 0
96 -112 0
99 -112 -113 0
96 -112 -113 0
-112 -113 0
-99 112 113 0
-96 112 113 0
96 99 -113 0
-99 -102 114 0
-102 -112 114 0
-99 -112 114 0
99 102 -114 0
102 112 -114 0
99 112 -114 0
102 -114 -115 0
99 -114 -115 0
112 -114 -115 0
-102 114 115 0
-99 114 115 0
-112 114 115 0
-99 -102 -112 115 0
99 102 112 -115 0
-102 -105 116 0
-105 -114 116 0
-102 -114 116 0
102 105 -116 0
105 114 -116 0
102 114 -116 0
105 -116 -117 0
102 -116 -117 0
114 -116 -117 0
-105 116 117 0
-102 116 117 0
-114 116 117 0
-102 -105 -114 117 0
102 105 114 -117 0
-105 -108 118 0
-108 -116 118 0
-105 -116 118 0
105 108 -118 0
108 116 -118 0
105 116 -118 0
108 -118 -119 0
105 -118 -119 0
116 -118 -119 0
-108 118 119 0
-105 118 119 0
-116 118 119 0
-105 -108 -116 119 0
105 108 116 -119 0
108 -120 0
118 -120 0
-108 -118 120 0
-61 -108 -118 0
-61 108 118 0
61 -108 118 0
61 108 -118 0
-49 111 0
49 -111 0
35 -113 0
-35 113 0
-28 -35 113 0
-28 -35 0
28 35 -113 0
28 35 0
-35 54 -115 0
-54 115 0
35 -54 115 0
35 -54 0
-46 -54 115 0
-46 -54 0
35 -46 -54 0
46 54 -115 0
-35 46 54 0
35 -46 115 0
42 -96 -117 0
42 -54 -117 0
42 -54 -96 0
-42 96 117 0
-42 54 117 0
-42 54 96 0
-42 117 -121 0
-42 96 -121 0
-42 54 -121 0
42 -117 121 0
42 -96 121 0
42 -54 121 0
-54 -96 -117 121 0
54 96 117 -121 0
-99 -119 122 0
-42 -119 122 0
-42 -99 122 0
99 119 -122 0
42 119 -122 0
42 99 -122 0
119 -122 -123 0
99 -122 -123 0
42 -122 -123 0
-119 122 123 0
-99 122 123 0
-42 122 123 0
-42 -99 -119 123 0
42 99 119 -123 0
-61 97 -102 0
-61 97 -122 0
97 -102 -122 0
61 -97 102 0
61 -97 122 0
-97 102 122 0
61 -97 -100 0
-97 -100 102 0
-97 -100 122 0
-61 97 100 0
97 100 -102 0
97 100 -122 0
-61 100 -102 -122 0
61 -100 102 122 0
103 -105 -120 0
-97 103 -120 0
-97 103 -105 0
-103 105 120 0
97 -103 120 0
97 -103 105 0
-103 -106 120 0
-103 105 -106 0
97 -103 -106 0
103 106 -120 0
103 -105 106 0
-97 103 106 0
-97 -105 106 -120 0
97 105 -106 120 0
108 -109 0
103 -109 0
-103 -108 109 0
-103 -108 -124 0
103 108 -124 0
103 -108 124 0
-103 108 124 0
-49 -125 0
49 125 0
-28 -126 0
28 126 0
-46 -127 0
46 127 0
-121 -128 0
121 128 0
-123 -129 0
123 129 0
-37 -100 0
37 100 0
-51 -106 0
51 106 0
-39 -124 0
39 124 0
-31 -109 0
31 109 0
-58 60 0
49 -58 0
-49 58 -60 0
-49 -60 0
49 60 0
-28 64 -72 0
-58 64 -72 0
-28 -58 64 0
28 -64 72 0
58 -64 72 0
28 58 -64 0
64 -72 0
-28 64 0
-58 64 0
-28 -58 -72 0
-26 -46 67 0
-26 -64 67 0
-46 -64 67 0
26 46 -67 0
26 64 -67 0
46 64 -67 0
26 -67 0
46 -67 0
64 -67 0
26 46 64 0
-44 70 -121 0
-44 -67 70 0
-67 70 -121 0
44 -70 121 0
44 67 -70 0
67 -70 121 0
-44 70 0
70 -121 0
-67 70 0
-44 -67 -121 0
-18 73 -123 0
-18 -70 73 0
-70 73 -123 0
18 -73 123 0
18 70 -73 0
70 -73 123 0
-18 73 0
73 -123 0
-70 73 0
-18 -70 -123 0
-16 76 -100 0
-16 -73 76 0
-73 76 -100 0
16 -76 100 0
16 73 -76 0
73 -76 100 0
-16 76 0
76 -100 0
-73 76 0
-16 -73 -100 0
-14 79 -106 0
-14 -76 79 0
-76 79 -106 0
14 -79 106 0
14 76 -79 0
76 -79 106 0
-14 79 0
79 -106 0
-76 79 0
-14 -76 -106 0
-12 25 -124 0
-12 25 -79 0
25 -79 -124 0
12 -25 124 0
12 -25 79 0
-25 79 124 0
-12 25 0
25 -124 0
25 -79 0
-12 -79 -124 0
2 -10 -109 0
2 -10 -25 0
2 -25 -109 0
-2 10 109 0
-2 10 25 0
-2 25 109 0
2 -10 0
2 -109 0
2 -25 0
-10 -25 -109 0
-1 8 0
-1 2 0
1 -2 -8 0
2 -8 0
-2 8 0
-1 -9 0
1 -9 0
-1 9 0
